words_easy_train/words_114_SAT.qaiger
aag 58 16 0 1 42
2
14
16
18
22
30
28
10
32
20
26
24
4
8
12
6
116
34 21 19
36 34 23
38 36 25
40 38 27
42 40 29
44 42 31
46 45 32
48 44 33
50 49 47
52 21 12
54 19 11
56 54 53
58 20 12
60 59 35
62 61 57
64 62 14
66 35 22
68 67 37
70 63 15
72 71 69
74 73 65
76 37 24
78 77 39
80 79 17
82 81 75
84 40 16
86 85 31
88 41 17
90 89 29
92 90 86
94 30 28
96 94 39
98 96 26
100 99 93
102 27 16
104 102 78
106 105 74
108 107 101
110 108 83
112 110 51
114 111 50
116 115 113
i0 1 x1[0]
i1 1 x1[6]
i2 1 x1[7]
i3 2 y2[0]
i4 2 y2[2]
i5 2 y2[6]
i6 2 y2[5]
i7 1 x1[4]
i8 2 y2[7]
i9 2 y2[1]
i10 2 y2[4]
i11 2 y2[3]
i12 1 x1[1]
i13 1 x1[3]
i14 1 x1[5]
i15 1 x1[2]
o0 bv[0]
c
simplified
  <
    >> 4
      1 x1
    subtract
      1
      2 y2
