words_easy_train/words_114_SAT.qaiger.qdimacs
p cnf 58 127
a 1 2 3 4 5 6 7 8 0
e 9 10 11 12 13 14 15 16 17 18 19 20 21 22 23 24 25 26 27 28 29 30 31 32 33 34 35 36 37 38 39 40 41 42 43 44 45 46 47 48 49 50 51 52 53 54 55 56 57 58 0
10 9 17 0
-10 -17 0
-9 -17 0
-17 11 18 0
17 -18 0
-11 -18 0
-18 12 19 0
18 -19 0
-12 -19 0
-19 13 20 0
19 -20 0
-13 -20 0
-20 14 21 0
20 -21 0
-14 -21 0
-21 15 22 0
21 -22 0
-15 -22 0
22 -16 23 0
-22 -23 0
16 -23 0
-22 16 24 0
22 -24 0
-16 -24 0
24 23 25 0
-24 -25 0
-23 -25 0
10 -6 26 0
-10 -26 0
6 -26 0
9 5 27 0
-9 -27 0
-5 -27 0
-27 26 28 0
27 -28 0
-26 -28 0
-10 -6 29 0
10 -29 0
6 -29 0
29 17 30 0
-29 -30 0
-17 -30 0
30 28 31 0
-30 -31 0
-28 -31 0
-31 -7 32 0
31 -32 0
7 -32 0
17 -11 33 0
-17 -33 0
11 -33 0
33 18 34 0
-33 -34 0
-18 -34 0
31 7 35 0
-31 -35 0
-7 -35 0
35 34 36 0
-35 -36 0
-34 -36 0
36 32 37 0
-36 -37 0
-32 -37 0
18 -12 38 0
-18 -38 0
12 -38 0
38 19 39 0
-38 -39 0
-19 -39 0
39 8 40 0
-39 -40 0
-8 -40 0
40 37 41 0
-40 -41 0
-37 -41 0
-20 -8 42 0
20 -42 0
8 -42 0
42 15 43 0
-42 -43 0
-15 -43 0
20 8 44 0
-20 -44 0
-8 -44 0
44 14 45 0
-44 -45 0
-14 -45 0
-45 -43 46 0
45 -46 0
43 -46 0
-15 -14 47 0
15 -47 0
14 -47 0
-47 19 48 0
47 -48 0
-19 -48 0
-48 -13 49 0
48 -49 0
13 -49 0
49 46 50 0
-49 -50 0
-46 -50 0
13 -8 51 0
-13 -51 0
8 -51 0
-51 -39 52 0
51 -52 0
39 -52 0
52 -37 53 0
-52 -53 0
37 -53 0
53 50 54 0
-53 -54 0
-50 -54 0
-54 41 55 0
54 -55 0
-41 -55 0
-55 25 56 0
55 -56 0
-25 -56 0
55 -25 57 0
-55 -57 0
25 -57 0
57 56 58 0
-57 -58 0
-56 -58 0
58 0
